# 3d Lennard-Jones melt
# original lammps/examples/melt/in.melt

units		lj
atom_style	atomic

lattice		fcc 0.8442
region		box block 0 10 0 10 0 10
create_box	1 box
create_atoms	1 box
mass		1 1.0

velocity	all create 3.0 87287

pair_style	lj/cut 2.5
pair_coeff	1 1 1.0 1.0 2.5

neighbor	0.3 bin
neigh_modify	every 20 delay 0 check no

fix		1 all nve

#dump		id all atom 50 dump.melt

# thermo output
variable e2body    equal ebond+evdwl
variable ecoul_tot equal ecoul+elong
variable str_dbg string 'ebond eangle edihed eimp evdwl ecoul elong etail v_e2body v_ecoul_tot'
thermo_style custom step temp pe etotal press vol ${str_dbg}
thermo		1000

# compute the per atom properties
compute peatom all pe/atom
dump 1 all custom/gz 1000 dump.lammpstrj.gz id type x y z fx fy fz c_peatom
dump_modify 1 format float "% 20.15f"

run		10000
